* ENCODING=ISO-8859-1
NAME          UFlpPre
ROWS
 N  obj     
 G  c1      
 G  c2      
 G  c3      
 G  c4      
 G  c5      
 G  c6      
 G  c7      
 G  c8      
 G  c9      
 G  c10     
 G  c11     
 G  c12     
 G  c13     
 G  c14     
 G  c15     
 L  c16     
 L  c17     
 L  c18     
 L  c19     
 L  c20     
 L  c21     
 L  c22     
 L  c23     
 L  c24     
 L  c25     
 L  c26     
 L  c27     
 L  c28     
 G  c29     
 G  c30     
 G  c31     
 L  c32     
 L  c33     
 L  c34     
 G  c35     
 L  c36     
 L  c37     
 L  c38     
 L  c39     
 L  c40     
 L  c41     
 L  c42     
 L  c43     
 L  c44     
 L  c45     
 L  c46     
 L  c47     
 L  c48     
 L  c49     
 L  c50     
 L  c51     
 L  c52     
 L  c53     
 L  c54     
 L  c55     
 L  c56     
 L  c57     
 L  c58     
 L  c59     
 L  c60     
 L  c61     
 L  c62     
 L  c63     
 L  c64     
 L  c65     
 L  c66     
 L  c67     
 L  c68     
 L  c69     
 L  c70     
 L  c71     
 L  c72     
 L  c73     
 L  c74     
 L  c75     
 L  c76     
 L  c77     
 L  c78     
 L  c79     
 L  c80     
 L  c81     
 L  c82     
 L  c83     
 L  c84     
 L  c85     
 L  c86     
 L  c87     
 L  c88     
 L  c89     
 L  c90     
 L  c91     
 L  c92     
 L  c93     
 L  c94     
 L  c95     
 L  c96     
 L  c97     
 L  c98     
 L  c99     
 L  c100    
 L  c101    
 G  c102    
 G  c103    
 G  c104    
 G  c105    
 G  c106    
 G  c107    
 G  c108    
 G  c109    
 G  c110    
 G  c111    
 G  c112    
 G  c113    
 G  c114    
COLUMNS
    MARK0000  'MARKER'                 'INTORG'
    x1        obj                           595
    x1        c16                          -613
    x1        c89                        -30777
    x1        c102                       -30777
    x2        obj                           595
    x2        c17                          -613
    x2        c90                        -30777
    x2        c103                       -30777
    x3        obj                           595
    x3        c18                          -613
    x3        c91                        -30777
    x3        c104                       -30777
    x4        obj                           595
    x4        c19                          -613
    x4        c92                        -30777
    x4        c105                       -30777
    x5        obj                           595
    x5        c20                          -613
    x5        c93                        -30777
    x5        c106                       -30777
    x6        obj                           441
    x6        c21                          -198
    x6        c94                        -30777
    x6        c107                       -30777
    x7        obj                           143
    x7        c22                          -129
    x7        c95                        -30777
    x7        c108                       -30777
    x8        obj                           125
    x8        c23                           -73
    x8        c96                        -30777
    x8        c109                       -30777
    x9        obj                           108
    x9        c24                          -232
    x9        c97                        -30777
    x9        c110                       -30777
    x10       obj                           524
    x10       c25                          -276
    x10       c98                        -30777
    x10       c111                       -30777
    x11       c26                          -192
    x11       c29                             1
    x11       c32                             1
    x11       c99                        -30777
    x11       c112                       -30777
    x12       c27                          -192
    x12       c30                             1
    x12       c33                             1
    x12       c100                       -30777
    x12       c113                       -30777
    x13       c28                          -192
    x13       c31                             1
    x13       c34                             1
    x13       c101                       -30777
    x13       c114                       -30777
    MARK0001  'MARKER'                 'INTEND'
    x14       obj                            80
    x14       c1                              1
    x14       c2                             -1
    x14       c16                             1
    x15       obj                            80
    x15       c6                              1
    x15       c7                             -1
    x15       c16                             1
    x16       obj                            80
    x16       c11                             1
    x16       c12                            -1
    x16       c16                             1
    x17       obj                            80
    x17       c2                              1
    x17       c3                             -1
    x17       c17                             1
    x18       obj                            80
    x18       c7                              1
    x18       c8                             -1
    x18       c17                             1
    x19       obj                            80
    x19       c12                             1
    x19       c13                            -1
    x19       c17                             1
    x20       obj                            80
    x20       c3                              1
    x20       c4                             -1
    x20       c18                             1
    x21       obj                            80
    x21       c8                              1
    x21       c9                             -1
    x21       c18                             1
    x22       obj                            80
    x22       c13                             1
    x22       c14                            -1
    x22       c18                             1
    x23       obj                            80
    x23       c4                              1
    x23       c5                             -1
    x23       c19                             1
    x24       obj                            80
    x24       c9                              1
    x24       c10                            -1
    x24       c19                             1
    x25       obj                            80
    x25       c14                             1
    x25       c15                            -1
    x25       c19                             1
    x26       obj                            80
    x26       c1                             -1
    x26       c5                              1
    x26       c20                             1
    x27       obj                            80
    x27       c6                             -1
    x27       c10                             1
    x27       c20                             1
    x28       obj                            80
    x28       c11                            -1
    x28       c15                             1
    x28       c20                             1
    x29       obj                          10.4
    x29       c2                              1
    x29       c4                             -1
    x29       c21                             1
    x30       obj                          10.4
    x30       c7                              1
    x30       c9                             -1
    x30       c21                             1
    x31       obj                          10.4
    x31       c12                             1
    x31       c14                            -1
    x31       c21                             1
    x32       obj                          60.8
    x32       c1                             -1
    x32       c3                              1
    x32       c22                             1
    x33       obj                          60.8
    x33       c6                             -1
    x33       c8                              1
    x33       c22                             1
    x34       obj                          60.8
    x34       c11                            -1
    x34       c13                             1
    x34       c22                             1
    x35       obj                          27.2
    x35       c2                             -1
    x35       c5                              1
    x35       c23                             1
    x36       obj                          27.2
    x36       c7                             -1
    x36       c10                             1
    x36       c23                             1
    x37       obj                          27.2
    x37       c12                            -1
    x37       c15                             1
    x37       c23                             1
    x38       obj                            76
    x38       c3                             -1
    x38       c4                              1
    x38       c24                             1
    x39       obj                            76
    x39       c8                             -1
    x39       c9                              1
    x39       c24                             1
    x40       obj                            76
    x40       c13                            -1
    x40       c14                             1
    x40       c24                             1
    x41       obj                          47.2
    x41       c3                             -1
    x41       c5                              1
    x41       c25                             1
    x42       obj                          47.2
    x42       c8                             -1
    x42       c10                             1
    x42       c25                             1
    x43       obj                          47.2
    x43       c13                            -1
    x43       c15                             1
    x43       c25                             1
    x44       obj                          8000
    x44       c2                             -1
    x44       c4                              1
    x44       c26                             1
    x45       obj                          8000
    x45       c7                             -1
    x45       c9                              1
    x45       c26                             1
    x46       obj                          8000
    x46       c12                            -1
    x46       c14                             1
    x46       c26                             1
    x47       obj                          8000
    x47       c1                             -1
    x47       c3                              1
    x47       c27                             1
    x48       obj                          8000
    x48       c6                             -1
    x48       c8                              1
    x48       c27                             1
    x49       obj                          8000
    x49       c11                            -1
    x49       c13                             1
    x49       c27                             1
    x50       obj                          8000
    x50       c1                             -1
    x50       c5                              1
    x50       c28                             1
    x51       obj                          8000
    x51       c6                             -1
    x51       c10                             1
    x51       c28                             1
    x52       obj                          8000
    x52       c11                            -1
    x52       c15                             1
    x52       c28                             1
    x53       obj                           0.2
    x53       c35                             1
    MARK0002  'MARKER'                 'INTORG'
    x54       c36                        -30777
    x54       c37                        -30777
    x54       c38                        -30777
    x54       c75                             1
    x55       c39                        -30777
    x55       c40                        -30777
    x55       c41                        -30777
    x55       c75                             1
    x56       c42                        -30777
    x56       c43                        -30777
    x56       c44                        -30777
    x56       c75                             1
    x57       c45                        -30777
    x57       c46                        -30777
    x57       c47                        -30777
    x57       c75                             1
    x58       c48                        -30777
    x58       c49                        -30777
    x58       c50                        -30777
    x58       c75                             1
    x59       c51                        -30777
    x59       c52                        -30777
    x59       c53                        -30777
    x59       c75                             1
    x60       c54                        -30777
    x60       c55                        -30777
    x60       c56                        -30777
    x60       c75                             1
    x61       c57                        -30777
    x61       c58                        -30777
    x61       c59                        -30777
    x61       c75                             1
    x62       c60                        -30777
    x62       c61                        -30777
    x62       c62                        -30777
    x62       c75                             1
    x63       c63                        -30777
    x63       c64                        -30777
    x63       c65                        -30777
    x63       c75                             1
    x64       c66                        -30777
    x64       c67                        -30777
    x64       c68                        -30777
    x64       c75                          1000
    x65       c69                        -30777
    x65       c70                        -30777
    x65       c71                        -30777
    x65       c75                          1000
    x66       c72                        -30777
    x66       c73                        -30777
    x66       c74                        -30777
    x66       c75                          1000
    MARK0003  'MARKER'                 'INTEND'
    x67       c36                            -1
    x67       c37                            -1
    x67       c38                            -1
    x67       c76                            -1
    x67       c102                           -1
    x68       c39                            -1
    x68       c40                            -1
    x68       c41                            -1
    x68       c77                            -1
    x68       c103                           -1
    x69       c42                            -1
    x69       c43                            -1
    x69       c44                            -1
    x69       c78                            -1
    x69       c104                           -1
    x70       c45                            -1
    x70       c46                            -1
    x70       c47                            -1
    x70       c79                            -1
    x70       c105                           -1
    x71       c48                            -1
    x71       c49                            -1
    x71       c50                            -1
    x71       c80                            -1
    x71       c106                           -1
    x72       c51                            -1
    x72       c52                            -1
    x72       c53                            -1
    x72       c81                            -1
    x72       c107                           -1
    x73       c54                            -1
    x73       c55                            -1
    x73       c56                            -1
    x73       c82                            -1
    x73       c108                           -1
    x74       c57                            -1
    x74       c58                            -1
    x74       c59                            -1
    x74       c83                            -1
    x74       c109                           -1
    x75       c60                            -1
    x75       c61                            -1
    x75       c62                            -1
    x75       c84                            -1
    x75       c110                           -1
    x76       c63                            -1
    x76       c64                            -1
    x76       c65                            -1
    x76       c85                            -1
    x76       c111                           -1
    x77       c66                            -1
    x77       c67                            -1
    x77       c68                            -1
    x77       c86                            -1
    x77       c112                           -1
    x78       c69                            -1
    x78       c70                            -1
    x78       c71                            -1
    x78       c87                            -1
    x78       c113                           -1
    x79       c72                            -1
    x79       c73                            -1
    x79       c74                            -1
    x79       c88                            -1
    x79       c114                           -1
    x80       c36                             1
    x80       c48                            -1
    x80       c54                            -1
    x80       c69                            -1
    x80       c72                            -1
    x81       c35                            57
    x81       c37                             1
    x81       c49                            -1
    x81       c55                            -1
    x81       c70                            -1
    x81       c73                            -1
    x82       c35                            57
    x82       c38                             1
    x82       c50                            -1
    x82       c56                            -1
    x82       c71                            -1
    x82       c74                            -1
    x83       c35                            78
    x83       c36                            -1
    x83       c39                             1
    x83       c51                             1
    x83       c57                            -1
    x83       c66                            -1
    x84       c37                            -1
    x84       c40                             1
    x84       c52                             1
    x84       c58                            -1
    x84       c67                            -1
    x85       c38                            -1
    x85       c41                             1
    x85       c53                             1
    x85       c59                            -1
    x85       c68                            -1
    x86       c39                            -1
    x86       c42                             1
    x86       c54                             1
    x86       c60                            -1
    x86       c63                            -1
    x86       c69                             1
    x87       c35                           -57
    x87       c40                            -1
    x87       c43                             1
    x87       c55                             1
    x87       c61                            -1
    x87       c64                            -1
    x87       c70                             1
    x88       c41                            -1
    x88       c44                             1
    x88       c56                             1
    x88       c62                            -1
    x88       c65                            -1
    x88       c71                             1
    x89       c35                           -78
    x89       c42                            -1
    x89       c45                             1
    x89       c51                            -1
    x89       c60                             1
    x89       c66                             1
    x90       c43                            -1
    x90       c46                             1
    x90       c52                            -1
    x90       c61                             1
    x90       c67                             1
    x91       c44                            -1
    x91       c47                             1
    x91       c53                            -1
    x91       c62                             1
    x91       c68                             1
    x92       c45                            -1
    x92       c48                             1
    x92       c57                             1
    x92       c63                             1
    x92       c72                             1
    x93       c46                            -1
    x93       c49                             1
    x93       c58                             1
    x93       c64                             1
    x93       c73                             1
    x94       c35                           -57
    x94       c47                            -1
    x94       c50                             1
    x94       c59                             1
    x94       c65                             1
    x94       c74                             1
    x95       c35                           613
    x95       c76                             1
    x95       c89                             1
    x95       c102                            1
    x96       c35                           613
    x96       c77                             1
    x96       c90                             1
    x96       c103                            1
    x97       c35                           613
    x97       c78                             1
    x97       c91                             1
    x97       c104                            1
    x98       c35                           613
    x98       c79                             1
    x98       c92                             1
    x98       c105                            1
    x99       c35                           613
    x99       c80                             1
    x99       c93                             1
    x99       c106                            1
    x100      c35                           198
    x100      c81                             1
    x100      c94                             1
    x100      c107                            1
    x101      c35                           129
    x101      c82                             1
    x101      c95                             1
    x101      c108                            1
    x102      c35                            73
    x102      c83                             1
    x102      c96                             1
    x102      c109                            1
    x103      c35                           232
    x103      c84                             1
    x103      c97                             1
    x103      c110                            1
    x104      c35                           276
    x104      c85                             1
    x104      c98                             1
    x104      c111                            1
    x105      c35                           192
    x105      c86                             1
    x105      c99                             1
    x105      c112                            1
    x106      c35                           192
    x106      c87                             1
    x106      c100                            1
    x106      c113                            1
    x107      c35                           192
    x107      c88                             1
    x107      c101                            1
    x107      c114                            1
RHS
    rhs       c2                            -78
    rhs       c4                             78
    rhs       c6                            -57
    rhs       c8                             57
    rhs       c11                           -57
    rhs       c15                            57
    rhs       c29                             1
    rhs       c30                             1
    rhs       c31                             1
    rhs       c32                             1
    rhs       c33                             1
    rhs       c34                             1
    rhs       c36                           100
    rhs       c37                           100
    rhs       c38                           100
    rhs       c39                           100
    rhs       c40                           100
    rhs       c41                           100
    rhs       c42                           100
    rhs       c43                           100
    rhs       c44                           100
    rhs       c45                           100
    rhs       c46                           100
    rhs       c47                           100
    rhs       c48                           100
    rhs       c49                           100
    rhs       c50                           100
    rhs       c51                            13
    rhs       c52                            13
    rhs       c53                            13
    rhs       c54                            76
    rhs       c55                            76
    rhs       c56                            76
    rhs       c57                            34
    rhs       c58                            34
    rhs       c59                            34
    rhs       c60                            95
    rhs       c61                            95
    rhs       c62                            95
    rhs       c63                            59
    rhs       c64                            59
    rhs       c65                            59
    rhs       c66                         10000
    rhs       c67                         10000
    rhs       c68                         10000
    rhs       c69                         10000
    rhs       c70                         10000
    rhs       c71                         10000
    rhs       c72                         10000
    rhs       c73                         10000
    rhs       c74                         10000
    rhs       c75                             1
    rhs       c102                       -30777
    rhs       c103                       -30777
    rhs       c104                       -30777
    rhs       c105                       -30777
    rhs       c106                       -30777
    rhs       c107                       -30777
    rhs       c108                       -30777
    rhs       c109                       -30777
    rhs       c110                       -30777
    rhs       c111                       -30777
    rhs       c112                       -30777
    rhs       c113                       -30777
    rhs       c114                       -30777
BOUNDS
 UP bnd       x1                              1
 UP bnd       x2                              1
 UP bnd       x3                              1
 UP bnd       x4                              1
 UP bnd       x5                              1
 UP bnd       x6                              1
 UP bnd       x7                              1
 UP bnd       x8                              1
 UP bnd       x9                              1
 UP bnd       x10                             1
 UP bnd       x11                             1
 UP bnd       x12                             1
 UP bnd       x13                             1
 UP bnd       x54                             1
 UP bnd       x55                             1
 UP bnd       x56                             1
 UP bnd       x57                             1
 UP bnd       x58                             1
 UP bnd       x59                             1
 UP bnd       x60                             1
 UP bnd       x61                             1
 UP bnd       x62                             1
 UP bnd       x63                             1
 UP bnd       x64                             1
 UP bnd       x65                             1
 UP bnd       x66                             1
 FR bnd       x80     
 FR bnd       x81     
 FR bnd       x82     
 FR bnd       x83     
 FR bnd       x84     
 FR bnd       x85     
 FR bnd       x86     
 FR bnd       x87     
 FR bnd       x88     
 FR bnd       x89     
 FR bnd       x90     
 FR bnd       x91     
 FR bnd       x92     
 FR bnd       x93     
 FR bnd       x94     
ENDATA
